10 10
15 30
45 77
20 50
60 50
60 15
90 25
90 79
54 18
21 10
63 91
16 71
26 29
58 39
33 15
33 55
80 90
100 79
100 59
22 80
33 81
48 88
50 77
90 76
20 56
80 60
30 5
20 10
0 30
100 80
11 54
11 90
11 18
80 43
43 81
76 67
57 50
99 21
99 88
5 31
